2
22
29
40	26
1	1	5	8	
2	1	26	3	
3	1	14	5	
4	1	4	10	
5	1	16	10	
6	2	7	15	14	5	
7	1	9	8	
8	1	5	12	
9	1	18	5	
10	2	13	9	25	2	
11	2	17	8	14	6	
12	1	19	4	
13	2	19	6	25	3	
14	1	14	7	
15	1	5	13	
16	1	17	3	
17	2	23	4	5	15	
18	2	4	15	8	12	
19	1	18	9	
20	1	17	8	
21	2	6	16	4	12	
22	1	7	14	
